words_hard_train/1611.qaiger
aag 27 14 0 1 13
2
4
8
10
16
18
24
26
30
32
36
38
48
50
54
6 2 4
12 8 10
14 7 13
20 16 18
22 14 21
28 24 26
34 30 32
40 36 38
42 35 41
44 28 43
46 22 45
52 48 50
54 47 53
i0 1 x1[5]
i1 2 y1[5]
i2 1 x1[6]
i3 2 y1[6]
i4 1 x1[4]
i5 2 y1[4]
i6 1 x1[3]
i7 2 y1[3]
i8 1 x1[1]
i9 2 y1[1]
i10 1 x1[2]
i11 2 y1[2]
i12 1 x1[7]
i13 2 y1[7]
o0 bv[0]
c
simplified
  >
    and
      2 y1
      1 x1
    add
      1
      << 3
        1
