words_hard_train/1611.qaiger.qdimacs
p cnf 27 40
a 1 4 8 12 15 18 24 0
e 2 3 5 6 7 9 10 11 13 14 16 17 19 20 21 22 23 25 26 27 0
-1 -2 3 0
1 -3 0
2 -3 0
-4 -5 6 0
4 -6 0
5 -6 0
3 6 7 0
-3 -7 0
-6 -7 0
-8 -9 10 0
8 -10 0
9 -10 0
-7 10 11 0
7 -11 0
-10 -11 0
-12 -13 14 0
12 -14 0
13 -14 0
-15 -16 17 0
15 -17 0
16 -17 0
-18 -19 20 0
18 -20 0
19 -20 0
17 20 21 0
-17 -21 0
-20 -21 0
-14 21 22 0
14 -22 0
-21 -22 0
-11 22 23 0
11 -23 0
-22 -23 0
-24 -25 26 0
24 -26 0
25 -26 0
23 26 27 0
-23 -27 0
-26 -27 0
27 0
